1
100 1000
2 7 9 7 4 1 7 6 8 6 8 2 7 1 5 8 10 5 7 8 5 8 5 1 3 3 8 3 10 4 8 4 8 6 3 6 3 1 10 10 2 3 3 10 10 3 3 7 5 2 10 2 5 3 10 10 5 4 1 6 9 3 1 10 8 7 9 7 9 5 6 3 7 4 1 7 8 9 5 9 3 10 10 9 3 9 10 6 6 3 6 5 6 10 10 7 5 1 2 3 
7 2 5 5 8 8 8 5 3 6 9 9 7 2 5 10 7 7 3 5 2 1 1 3 10 6 5 8 1 3 5 2 9 10 10 10 4 9 2 1 2 7 8 9 2 2 7 5 2 8 8 3 10 7 10 8 6 7 1 9 7 9 8 2 1 4 8 6 6 4 7 1 5 4 10 3 7 10 8 2 7 2 2 9 1 3 3 10 9 1 2 1 7 10 3 5 4 7 10 9 